CAV19/chc/CAV/64bits_signed/32bits_unsignedcegis_danger_benchmark_svcomp_simple_true-unreach-call4.sl_32bits_unsigned.sl_64bits_signed.smt2
(set-logic HORN)
(declare-fun inv ((_ BitVec 64) ) Bool)
(assert (forall ((x (_ BitVec 64))) 
       (=> ( = x #x0ffffff0 ) (inv x))))
(assert (forall ((x (_ BitVec 64)) (x! (_ BitVec 64))) 
       (=> (and (inv x) ( and ( bvsgt x #x00000000 ) ( = x! ( bvsub x #x00000002 ) ) )) (inv x!))))
(assert (forall ((x (_ BitVec 64))) 
       (=> (inv x) ( or ( = #x00000000 ( bvurem x #x00000002 ) ) ( bvsgt x #x00000000 ) ))))
(check-sat)
