data/CAV19/sygus/CAV/64bits_signed/32bits_unsignedcegis_danger_benchmark_svcomp_simple_true-unreach-call4.sl_32bits_unsigned.sl_64bits_signed.sl
(set-logic BV)

(synth-inv inv_fun ((x (_ BitVec 64))))

(define-fun pre_fun ((x (_ BitVec 64))) Bool
       ( = x #x0ffffff0 ))
(define-fun trans_fun ((x (_ BitVec 64)) (x! (_ BitVec 64))) Bool
       ( and ( bvsgt x #x00000000 ) ( = x! ( bvsub x #x00000002 ) ) ))
(define-fun post_fun ((x (_ BitVec 64))) Bool
       ( or ( = #x00000000 ( bvurem x #x00000002 ) ) ( bvsgt x #x00000000 ) ))

(inv-constraint inv_fun pre_fun trans_fun post_fun)

(check-synth)

